Route #1: 4 7 42 31 20 46 26
Route #2: 14 34 17 3 37 36
Route #3: 33 2 51 11 15
Route #4: 12 10 5 53 40 16 38 32
Route #5: 47 39 49 9 35 43
Route #6: 29 1 45 6
Route #7: 21 8 41 25
Route #8: 18 48 50 44 24 52 23
Route #9: 30 22 19 27 13 54 28
Cost 1074
Time 0.106214
